0	25	272	0	200
1	404	494	0	200
2	18	469	0	200
3	245	431	0	200
4	31	244	0	200
5	478	448	0	200
6	63	370	0	200
7	55	129	0	200
8	206	467	0	200
9	336	248	0	200
10	16	331	0	200
11	266	238	0	200
12	407	0	0	200
13	454	188	0	200
14	230	185	0	200
15	53	41	0	200
16	341	326	0	200
17	44	351	0	200
18	474	155	0	200
19	163	333	0	200
20	40	261	0	200
21	336	326	0	200
22	280	182	0	200
23	424	248	0	200
24	297	398	0	200
